benchmarks_CP/INST_36x36/25/inst36x36_25_83.dzn
S=6;
start=[|
-1,	-1,	-1,	-1,	18,	34,	-1,	-1,	27,	-1,	-1,	9,	-1,	-1,	6,	35,	-1,	-1,	-1,	-1,	-1,	-1,	-1,	-1,	-1,	-1,	7,	-1,	3,	-1,	15,	-1,	-1,	-1,	-1,	-1|
14,	-1,	-1,	-1,	27,	-1,	-1,	-1,	-1,	-1,	-1,	-1,	11,	-1,	2,	-1,	-1,	-1,	-1,	10,	-1,	-1,	-1,	-1,	-1,	-1,	-1,	-1,	31,	-1,	-1,	-1,	-1,	-1,	-1,	-1|
-1,	31,	-1,	3,	-1,	-1,	-1,	-1,	-1,	-1,	-1,	-1,	-1,	-1,	-1,	23,	-1,	18,	11,	19,	-1,	-1,	-1,	35,	-1,	-1,	-1,	-1,	-1,	-1,	4,	-1,	-1,	-1,	-1,	36|
5,	-1,	-1,	-1,	-1,	-1,	-1,	14,	-1,	20,	-1,	-1,	-1,	-1,	28,	-1,	-1,	-1,	-1,	18,	-1,	-1,	-1,	-1,	33,	-1,	-1,	-1,	6,	-1,	-1,	-1,	-1,	-1,	-1,	8|
36,	25,	-1,	-1,	-1,	13,	-1,	-1,	-1,	-1,	33,	-1,	-1,	-1,	-1,	-1,	-1,	17,	-1,	15,	-1,	-1,	31,	-1,	-1,	18,	22,	-1,	10,	-1,	-1,	-1,	-1,	-1,	19,	26|
-1,	-1,	-1,	-1,	17,	-1,	-1,	-1,	-1,	8,	-1,	18,	-1,	-1,	-1,	31,	-1,	-1,	-1,	-1,	34,	-1,	-1,	-1,	-1,	-1,	-1,	-1,	-1,	-1,	-1,	-1,	5,	-1,	-1,	-1|
-1,	-1,	-1,	-1,	28,	-1,	-1,	-1,	-1,	7,	-1,	14,	1,	-1,	-1,	-1,	-1,	-1,	-1,	29,	11,	-1,	-1,	-1,	-1,	-1,	-1,	-1,	-1,	-1,	-1,	-1,	10,	-1,	-1,	-1|
21,	-1,	22,	-1,	-1,	-1,	-1,	25,	-1,	-1,	-1,	-1,	-1,	-1,	-1,	-1,	-1,	3,	-1,	6,	-1,	27,	28,	-1,	-1,	-1,	-1,	-1,	-1,	-1,	-1,	-1,	11,	4,	-1,	-1|
23,	19,	-1,	-1,	-1,	-1,	-1,	-1,	-1,	-1,	2,	-1,	-1,	12,	24,	-1,	29,	-1,	-1,	-1,	21,	-1,	-1,	32,	-1,	-1,	-1,	-1,	-1,	34,	-1,	14,	-1,	-1,	26,	-1|
11,	-1,	26,	-1,	-1,	-1,	-1,	-1,	-1,	-1,	29,	-1,	28,	25,	32,	-1,	-1,	-1,	-1,	5,	-1,	-1,	-1,	-1,	-1,	-1,	-1,	16,	8,	21,	22,	-1,	-1,	33,	36,	-1|
9,	-1,	-1,	-1,	-1,	-1,	4,	-1,	-1,	-1,	-1,	35,	-1,	17,	23,	-1,	-1,	-1,	-1,	-1,	-1,	10,	-1,	15,	36,	-1,	33,	-1,	24,	3,	-1,	29,	18,	-1,	28,	-1|
-1,	20,	-1,	17,	-1,	29,	-1,	-1,	-1,	-1,	-1,	-1,	9,	11,	-1,	-1,	-1,	-1,	-1,	-1,	-1,	-1,	-1,	-1,	-1,	-1,	-1,	-1,	-1,	-1,	-1,	-1,	-1,	-1,	-1,	-1|
-1,	-1,	-1,	15,	-1,	-1,	-1,	-1,	3,	-1,	-1,	-1,	19,	36,	26,	34,	-1,	-1,	17,	-1,	-1,	31,	-1,	-1,	5,	-1,	-1,	-1,	13,	9,	-1,	-1,	23,	-1,	25,	12|
-1,	-1,	-1,	-1,	-1,	-1,	-1,	-1,	19,	5,	-1,	31,	21,	-1,	9,	-1,	-1,	-1,	-1,	-1,	-1,	-1,	13,	-1,	24,	-1,	28,	-1,	-1,	22,	-1,	34,	8,	20,	-1,	-1|
-1,	-1,	-1,	-1,	-1,	-1,	-1,	-1,	14,	16,	10,	-1,	-1,	5,	-1,	-1,	15,	6,	12,	-1,	-1,	-1,	-1,	-1,	34,	-1,	-1,	-1,	-1,	2,	9,	-1,	-1,	11,	32,	4|
-1,	-1,	-1,	20,	-1,	3,	-1,	-1,	-1,	-1,	-1,	30,	23,	-1,	-1,	25,	-1,	-1,	-1,	-1,	-1,	-1,	-1,	-1,	-1,	8,	-1,	-1,	-1,	-1,	-1,	-1,	13,	26,	-1,	-1|
19,	2,	-1,	-1,	-1,	22,	-1,	-1,	-1,	-1,	-1,	-1,	-1,	-1,	-1,	-1,	30,	20,	9,	14,	-1,	-1,	-1,	-1,	-1,	35,	-1,	-1,	-1,	-1,	-1,	5,	-1,	-1,	27,	-1|
-1,	-1,	-1,	-1,	-1,	-1,	-1,	4,	-1,	-1,	-1,	-1,	-1,	-1,	10,	-1,	12,	-1,	33,	-1,	5,	3,	-1,	-1,	-1,	11,	-1,	23,	26,	-1,	-1,	-1,	-1,	-1,	1,	-1|
-1,	28,	-1,	-1,	-1,	8,	-1,	-1,	-1,	-1,	4,	-1,	6,	-1,	-1,	24,	-1,	25,	-1,	-1,	-1,	-1,	-1,	11,	22,	-1,	5,	-1,	-1,	-1,	17,	-1,	-1,	-1,	-1,	20|
-1,	-1,	-1,	-1,	-1,	-1,	-1,	-1,	6,	-1,	-1,	-1,	35,	-1,	-1,	-1,	-1,	-1,	-1,	-1,	-1,	-1,	-1,	22,	-1,	-1,	-1,	-1,	-1,	-1,	-1,	-1,	-1,	-1,	-1,	-1|
-1,	-1,	-1,	-1,	10,	-1,	-1,	-1,	-1,	-1,	-1,	17,	-1,	-1,	-1,	5,	2,	-1,	-1,	-1,	-1,	29,	-1,	-1,	-1,	32,	-1,	-1,	-1,	-1,	-1,	-1,	-1,	6,	33,	-1|
-1,	-1,	-1,	36,	-1,	-1,	27,	-1,	-1,	-1,	-1,	-1,	29,	-1,	-1,	-1,	17,	-1,	-1,	-1,	35,	-1,	-1,	-1,	1,	-1,	16,	-1,	-1,	10,	-1,	-1,	34,	-1,	4,	-1|
-1,	-1,	-1,	-1,	-1,	-1,	-1,	-1,	11,	-1,	-1,	-1,	-1,	-1,	-1,	-1,	-1,	-1,	-1,	-1,	-1,	-1,	27,	-1,	-1,	-1,	35,	-1,	-1,	15,	-1,	-1,	29,	-1,	3,	-1|
-1,	32,	-1,	-1,	-1,	-1,	14,	7,	-1,	-1,	-1,	-1,	30,	-1,	-1,	-1,	27,	-1,	31,	-1,	17,	-1,	-1,	-1,	2,	-1,	-1,	-1,	-1,	13,	-1,	-1,	-1,	-1,	-1,	-1|
4,	-1,	13,	-1,	11,	18,	-1,	-1,	32,	-1,	26,	-1,	-1,	-1,	-1,	-1,	-1,	12,	20,	-1,	-1,	-1,	-1,	27,	-1,	-1,	6,	-1,	-1,	-1,	-1,	-1,	-1,	16,	2,	5|
-1,	29,	-1,	-1,	-1,	-1,	-1,	-1,	-1,	-1,	-1,	-1,	-1,	-1,	-1,	-1,	-1,	-1,	18,	8,	-1,	-1,	-1,	-1,	-1,	36,	-1,	-1,	-1,	-1,	26,	-1,	-1,	-1,	-1,	-1|
-1,	-1,	-1,	-1,	-1,	-1,	-1,	-1,	-1,	-1,	-1,	-1,	-1,	-1,	-1,	-1,	-1,	-1,	26,	-1,	-1,	-1,	-1,	-1,	-1,	20,	-1,	12,	-1,	18,	-1,	-1,	-1,	-1,	-1,	32|
-1,	22,	-1,	31,	-1,	-1,	24,	8,	-1,	-1,	-1,	-1,	20,	-1,	-1,	-1,	-1,	-1,	29,	-1,	-1,	-1,	11,	-1,	-1,	-1,	-1,	-1,	-1,	7,	-1,	-1,	-1,	-1,	-1,	-1|
-1,	-1,	25,	26,	-1,	-1,	-1,	-1,	10,	-1,	13,	-1,	-1,	32,	-1,	-1,	11,	8,	-1,	-1,	-1,	-1,	12,	2,	15,	-1,	24,	-1,	-1,	-1,	-1,	-1,	-1,	34,	-1,	-1|
2,	-1,	-1,	-1,	-1,	-1,	-1,	-1,	-1,	-1,	-1,	-1,	-1,	-1,	5,	-1,	18,	-1,	-1,	-1,	-1,	-1,	-1,	-1,	-1,	-1,	-1,	-1,	-1,	-1,	36,	-1,	-1,	-1,	-1,	-1|
1,	36,	-1,	23,	-1,	-1,	26,	21,	-1,	-1,	-1,	4,	-1,	-1,	-1,	-1,	-1,	-1,	-1,	-1,	-1,	-1,	-1,	-1,	-1,	10,	-1,	-1,	30,	-1,	-1,	25,	-1,	-1,	-1,	-1|
-1,	-1,	-1,	-1,	-1,	-1,	-1,	-1,	-1,	-1,	-1,	-1,	-1,	33,	7,	26,	-1,	-1,	-1,	4,	-1,	-1,	-1,	31,	-1,	21,	-1,	-1,	-1,	-1,	-1,	-1,	32,	-1,	12,	-1|
25,	-1,	-1,	-1,	-1,	30,	-1,	-1,	-1,	-1,	-1,	-1,	-1,	-1,	19,	-1,	-1,	14,	-1,	33,	-1,	-1,	-1,	29,	-1,	-1,	-1,	-1,	-1,	20,	-1,	-1,	15,	36,	-1,	-1|
-1,	26,	-1,	-1,	-1,	31,	23,	-1,	-1,	-1,	-1,	15,	-1,	21,	4,	-1,	28,	-1,	-1,	-1,	-1,	-1,	-1,	-1,	-1,	-1,	-1,	17,	22,	-1,	-1,	-1,	-1,	13,	-1,	-1|
24,	-1,	-1,	7,	-1,	-1,	-1,	-1,	-1,	-1,	-1,	-1,	18,	-1,	-1,	32,	-1,	36,	-1,	30,	-1,	-1,	-1,	-1,	-1,	15,	-1,	33,	1,	-1,	2,	-1,	27,	17,	-1,	-1|
8,	-1,	-1,	-1,	-1,	-1,	-1,	-1,	-1,	-1,	-1,	-1,	-1,	-1,	-1,	-1,	-1,	23,	19,	25,	-1,	-1,	-1,	-1,	-1,	13,	-1,	-1,	-1,	-1,	-1,	-1,	-1,	30,	-1,	-1|];
